NAME: instance_2146
TYPE: TSP
DIMENSION: 20
EDGE_WEIGHT_TYPE: EUC_2D
NODE_COORD_SECTION
0 43.24 9.18
1 85.06 38.41
2 21.09 60.23
3 12.25 4.29
4 75.84 13.39
5 85.41 50.91
6 58.89 64.28
7 56.88 16.82
8 99.12 4.51
9 91.03 67.26
10 7.27 45.25
11 56.71 25.54
12 67.46 15.78
13 69.02 56.37
14 36.40 55.31
15 52.73 51.56
16 53.73 76.84
17 92.50 89.90
18 90.12 25.55
19 0.94 39.45
EOF
